p cnf 14 64
7 -8 9 0
-3 4 -6 0
-3 -9 -11 0
-3 9 10 0
1 6 -7 0
10 -11 13 0
10 -11 -12 0
5 -8 13 0
-3 -5 -11 0
-1 -10 14 0
1 2 -4 0
-4 9 -11 0
-1 6 7 0
-2 5 -11 0
3 -8 -14 0
3 -9 -12 0
-1 -8 11 0
-1 -2 3 0
-2 3 11 0
6 -13 -14 0
-9 11 -12 0
-3 -7 -11 0
-8 9 -13 0
-3 -5 -7 0
-1 4 12 0
-8 -10 11 0
-4 -5 14 0
5 -6 -10 0
3 -6 9 0
1 5 -7 0
2 -4 -6 0
-5 9 14 0
1 -4 -10 0
-1 -2 4 0
3 5 -13 0
-4 11 -14 0
-2 5 -9 0
-1 -3 11 0
1 -8 10 0
-4 5 -12 0
7 -12 -13 0
-8 -9 12 0
3 -10 -12 0
4 11 12 0
1 -2 4 0
-11 12 14 0
4 -9 -10 0
1 -8 -13 0
3 -9 -13 0
1 -7 -9 0
-2 6 -13 0
-10 -11 14 0
4 6 12 0
-1 -10 11 0
-3 -8 -14 0
2 7 -14 0
-5 11 13 0
-4 -10 12 0
-2 8 -12 0
-7 13 14 0
1 5 -14 0
-4 -5 -9 0
3 -6 -10 0
-3 9 11 0
